5
50
157
40	24
1	2	5	10	8	4	
2	1	10	5	
3	2	11	3	6	3	
4	3	11	5	12	3	6	3	
5	3	9	4	8	3	21	2	
6	3	7	6	8	3	5	2	
7	5	11	5	5	5	9	4	12	3	9	2	
8	1	6	9	
9	5	7	6	8	5	20	4	9	4	23	3	
10	1	22	2	
11	4	11	3	11	3	9	3	4	3	
12	4	6	5	16	4	23	3	8	3	
13	4	6	9	6	5	23	3	5	2	
14	3	6	5	9	3	4	2	
15	2	7	5	19	3	
16	5	6	9	9	4	7	3	10	2	6	2	
17	4	5	5	11	4	22	3	12	3	
18	1	7	7	
19	4	10	6	10	6	6	4	15	3	
20	2	10	4	20	2	
21	4	6	9	12	4	24	3	10	3	
22	3	12	4	7	3	7	2	
23	3	5	10	4	7	5	4	
24	3	10	5	8	2	7	2	
25	3	6	9	5	4	5	2	
26	4	5	5	14	4	9	4	12	3	
27	5	6	11	7	5	6	5	8	4	6	4	
28	1	7	6	
29	4	8	11	5	8	5	5	6	3	
30	2	4	5	7	2	
31	5	10	4	5	4	16	3	15	3	19	2	
32	3	7	9	11	4	6	2	
33	4	5	5	18	4	9	4	6	4	
34	3	7	11	6	6	19	3	
35	4	7	9	5	6	10	2	7	2	
36	5	9	5	22	3	11	3	7	3	11	2	
37	3	8	12	11	3	6	2	
38	3	5	11	6	5	13	3	
39	4	10	6	11	4	10	4	23	3	
40	3	4	5	12	4	9	2	
41	3	6	5	5	4	18	2	
42	4	4	10	11	4	4	3	7	2	
43	4	5	11	5	4	5	3	12	2	
44	2	24	4	8	4	
45	1	4	12	
46	3	17	4	10	2	4	2	
47	1	5	2	
48	3	7	5	20	4	8	3	
49	5	7	6	7	4	7	3	7	3	5	2	
50	3	5	5	10	3	6	3	
